JulietBench/Juliet_Based_Patch_Bench/linux/CWE-189-Numeric-Errors/CVE_2014_4656_ac902c112d90a89e59916f751c2745f4dbdbb4bd/Resultsnd_ctl_remove_numid_conflict_SnippetNEQ.smt2
; benchmark generated from python API
(set-info :status unknown)
(declare-fun R () (_ BitVec 32))
(declare-fun rsi () (_ BitVec 64))
(declare-fun rdi () (_ BitVec 64))
(assert
 (let (($x565 (= (_ bv0 32) R)))
 (let ((?x8 ((_ extract 31 0) rsi)))
 (let ((?x15 (bvnot ?x8)))
 (let ((?x6 ((_ extract 31 0) rdi)))
 (let (($x59 (bvult ?x6 ?x15)))
 (let ((?x14 (bvadd (bvadd ?x8 ?x6) (_ bv1 32))))
 (let (($x70 (bvuge (_ bv28 32) ?x14)))
 (let (($x443 (and $x70 $x59 $x565)))
 (let (($x19 (bvult (_ bv28 32) ?x14)))
 (let ((?x60 (bvadd ?x6 (_ bv1 32))))
 (let (($x67 (bvule (_ bv78 32) ?x60)))
 (let (($x642 (and $x67 $x19 $x59 $x565)))
 (let (($x528 (= (_ bv1 32) R)))
 (let (($x602 (bvugt (_ bv78 32) ?x60)))
 (let (($x436 (and $x602 $x19 $x59 $x528)))
 (let (($x707 (bvuge ?x6 ?x15)))
 (let ((?x1104 (bvadd ?x8 (_ bv1 32))))
 (let (($x1162 (bvuge (_ bv28 32) ?x1104)))
 (let (($x422 (and $x1162 $x707 $x565)))
 (let (($x1100 (bvult (_ bv28 32) ?x1104)))
 (let (($x421 (and $x1100 $x707 $x528)))
 (let (($x563 (or $x421 $x422 $x436 $x642 $x443)))
 (let (($x256 (not $x563)))
 (let (($x641 (and $x70 $x565)))
 (let (($x637 (and $x67 $x19 $x565)))
 (let (($x239 (and $x602 $x19 $x528)))
 (let (($x445 (or $x239 $x637 $x641)))
 (let (($x205 (not $x445)))
 (let (($x378 (and $x205 $x256)))
 (let (($x626 (and $x445 $x563)))
 (let (($x424 (or $x626 $x378)))
 (not $x424)))))))))))))))))))))))))))))))))
(check-sat)
